NAME          DCAP_2_4_3_500_SS254
ROWS
 N  OBJ
 L  CON1
 L  CON2
 L  CON3
 L  CON4
 L  CON5
 L  CON6
 L  CON7
 L  CON8
 L  CON9
 L  CON10
 L  CON11
 L  CON12
 E  CON13
 E  CON14
 E  CON15
 E  CON16
 E  CON17
 E  CON18
 E  CON19
 E  CON20
 E  CON21
 E  CON22
 E  CON23
 E  CON24
COLUMNS
    x[1,1]    OBJ       6.180167      CON1      1.000000    
    x[1,1]    CON7      -1.000000     CON8      -1.000000   
    x[1,1]    CON9      -1.000000   
    x[1,2]    OBJ       6.563535      CON2      1.000000    
    x[1,2]    CON8      -1.000000     CON9      -1.000000   
    x[1,3]    OBJ       7.443064      CON3      1.000000    
    x[1,3]    CON9      -1.000000   
    x[2,1]    OBJ       6.732585      CON4      1.000000    
    x[2,1]    CON10     -1.000000     CON11     -1.000000   
    x[2,1]    CON12     -1.000000   
    x[2,2]    OBJ       5.039546      CON5      1.000000    
    x[2,2]    CON11     -1.000000     CON12     -1.000000   
    x[2,3]    OBJ       6.054841      CON6      1.000000    
    x[2,3]    CON12     -1.000000   
    MARKER    'MARKER'                'INTORG'
    u[1,1]    OBJ       48.076654     CON1      -1.000000   
    u[1,2]    OBJ       20.066487     CON2      -1.000000   
    u[1,3]    OBJ       32.230043     CON3      -1.000000   
    u[2,1]    OBJ       49.996186     CON4      -1.000000   
    u[2,2]    OBJ       49.466655     CON5      -1.000000   
    u[2,3]    OBJ       27.484319     CON6      -1.000000   
    y[1,1,1]  OBJ       5.865438      CON7      1.314882    
    y[1,1,1]  CON13     1.000000    
    y[1,1,2]  OBJ       8.720197      CON8      1.325627    
    y[1,1,2]  CON14     1.000000    
    y[1,1,3]  OBJ       9.517874      CON9      0.894967    
    y[1,1,3]  CON15     1.000000    
    y[1,2,1]  OBJ       9.396216      CON7      1.288239    
    y[1,2,1]  CON16     1.000000    
    y[1,2,2]  OBJ       9.996944      CON8      1.414405    
    y[1,2,2]  CON17     1.000000    
    y[1,2,3]  OBJ       7.782263      CON9      1.067928    
    y[1,2,3]  CON18     1.000000    
    y[1,3,1]  OBJ       7.183945      CON7      0.602122    
    y[1,3,1]  CON19     1.000000    
    y[1,3,2]  OBJ       8.369873      CON8      0.686294    
    y[1,3,2]  CON20     1.000000    
    y[1,3,3]  OBJ       9.970598      CON9      0.691179    
    y[1,3,3]  CON21     1.000000    
    y[1,4,1]  OBJ       5.786463      CON7      0.628156    
    y[1,4,1]  CON22     1.000000    
    y[1,4,2]  OBJ       5.000709      CON8      1.045527    
    y[1,4,2]  CON23     1.000000    
    y[1,4,3]  OBJ       9.073554      CON9      1.218059    
    y[1,4,3]  CON24     1.000000    
    y[2,1,1]  OBJ       7.857418      CON10     1.314882    
    y[2,1,1]  CON13     1.000000    
    y[2,1,2]  OBJ       5.053622      CON11     1.325627    
    y[2,1,2]  CON14     1.000000    
    y[2,1,3]  OBJ       7.210975      CON12     0.894967    
    y[2,1,3]  CON15     1.000000    
    y[2,2,1]  OBJ       8.313874      CON10     1.288239    
    y[2,2,1]  CON16     1.000000    
    y[2,2,2]  OBJ       8.163591      CON11     1.414405    
    y[2,2,2]  CON17     1.000000    
    y[2,2,3]  OBJ       8.495937      CON12     1.067928    
    y[2,2,3]  CON18     1.000000    
    y[2,3,1]  OBJ       5.033671      CON10     0.602122    
    y[2,3,1]  CON19     1.000000    
    y[2,3,2]  OBJ       7.632564      CON11     0.686294    
    y[2,3,2]  CON20     1.000000    
    y[2,3,3]  OBJ       9.292833      CON12     0.691179    
    y[2,3,3]  CON21     1.000000    
    y[2,4,1]  OBJ       6.857233      CON10     0.628156    
    y[2,4,1]  CON22     1.000000    
    y[2,4,2]  OBJ       7.110247      CON11     1.045527    
    y[2,4,2]  CON23     1.000000    
    y[2,4,3]  OBJ       9.584966      CON12     1.218059    
    y[2,4,3]  CON24     1.000000    
    z[1,1]    OBJ       687.243634    CON13     1.000000    
    z[1,2]    OBJ       547.183576    CON14     1.000000    
    z[1,3]    OBJ       870.325349    CON15     1.000000    
    z[2,1]    OBJ       703.065197    CON16     1.000000    
    z[2,2]    OBJ       984.420757    CON17     1.000000    
    z[2,3]    OBJ       745.271024    CON18     1.000000    
    z[3,1]    OBJ       845.766838    CON19     1.000000    
    z[3,2]    OBJ       635.401665    CON20     1.000000    
    z[3,3]    OBJ       694.764508    CON21     1.000000    
    z[4,1]    OBJ       713.863101    CON22     1.000000    
    z[4,2]    OBJ       970.872696    CON23     1.000000    
    z[4,3]    OBJ       991.607828    CON24     1.000000    
    MARKER    'MARKER'                 'INTEND'
RHS
    RHS       CON1      -0.000000     CON2      -0.000000   
    RHS       CON3      -0.000000     CON4      -0.000000   
    RHS       CON5      -0.000000     CON6      -0.000000   
    RHS       CON7      -0.000000     CON8      -0.000000   
    RHS       CON9      -0.000000     CON10     -0.000000   
    RHS       CON11     -0.000000     CON12     -0.000000   
    RHS       CON13     1.000000      CON14     1.000000    
    RHS       CON15     1.000000      CON16     1.000000    
    RHS       CON17     1.000000      CON18     1.000000    
    RHS       CON19     1.000000      CON20     1.000000    
    RHS       CON21     1.000000      CON22     1.000000    
    RHS       CON23     1.000000      CON24     1.000000    
BOUNDS
 BV BOUND     u[1,1]  
 BV BOUND     u[1,2]  
 BV BOUND     u[1,3]  
 BV BOUND     u[2,1]  
 BV BOUND     u[2,2]  
 BV BOUND     u[2,3]  
 BV BOUND     y[1,1,1]
 BV BOUND     y[1,1,2]
 BV BOUND     y[1,1,3]
 BV BOUND     y[1,2,1]
 BV BOUND     y[1,2,2]
 BV BOUND     y[1,2,3]
 BV BOUND     y[1,3,1]
 BV BOUND     y[1,3,2]
 BV BOUND     y[1,3,3]
 BV BOUND     y[1,4,1]
 BV BOUND     y[1,4,2]
 BV BOUND     y[1,4,3]
 BV BOUND     y[2,1,1]
 BV BOUND     y[2,1,2]
 BV BOUND     y[2,1,3]
 BV BOUND     y[2,2,1]
 BV BOUND     y[2,2,2]
 BV BOUND     y[2,2,3]
 BV BOUND     y[2,3,1]
 BV BOUND     y[2,3,2]
 BV BOUND     y[2,3,3]
 BV BOUND     y[2,4,1]
 BV BOUND     y[2,4,2]
 BV BOUND     y[2,4,3]
 BV BOUND     z[1,1]  
 BV BOUND     z[1,2]  
 BV BOUND     z[1,3]  
 BV BOUND     z[2,1]  
 BV BOUND     z[2,2]  
 BV BOUND     z[2,3]  
 BV BOUND     z[3,1]  
 BV BOUND     z[3,2]  
 BV BOUND     z[3,3]  
 BV BOUND     z[4,1]  
 BV BOUND     z[4,2]  
 BV BOUND     z[4,3]  
ENDATA
